; benchmark generated from python API
(set-info :status unknown)
(declare-sort node 0)
 (declare-sort phase 0)
 (declare-sort quorum 0)
 (declare-sort value 0)
 (declare-fun member (node quorum) Bool)
(declare-fun phase_decide () phase)
(declare-fun phase_becomeLeader () phase)
(declare-fun phase_recvVote () phase)
(declare-fun phase_sendVote () phase)
(declare-fun phase_sendRequestVote () phase)
(declare-fun en_noop () Bool)
(declare-fun |en_ext:next_phase1| () Bool)
(declare-fun |en_ext:next_phase2| () Bool)
(declare-fun |en_ext:next_phase3| () Bool)
(declare-fun |en_ext:next_phase4| () Bool)
(declare-fun |en_ext:decide| () Bool)
(declare-fun |en_ext:send_request_vote| () Bool)
(declare-fun |en_ext:recv_vote| () Bool)
(declare-fun |en_ext:become_leader| () Bool)
(declare-fun |en_ext:send_vote| () Bool)
(declare-fun decided (node value) Bool)
(declare-fun __decided (node value) Bool)
(declare-fun voted (node) Bool)
(declare-fun __voted (node) Bool)
(declare-fun vote_msg (node node) Bool)
(declare-fun __vote_msg (node node) Bool)
(declare-fun vote_request_msg (node node) Bool)
(declare-fun __vote_request_msg (node node) Bool)
(declare-fun curr_phase () phase)
(declare-fun __curr_phase () phase)
(declare-fun leader (node) Bool)
(declare-fun __leader (node) Bool)
(declare-fun votes (node node) Bool)
(declare-fun __votes (node node) Bool)
(declare-fun |V__fml:n| () node)
(declare-fun |V__fml:v| () value)
(declare-fun |V__fml:dst| () node)
(declare-fun |V__fml:src| () node)
(declare-fun |V__fml:sender| () node)
(declare-fun |V__fml:q| () quorum)
(assert
 (let (($x29331 (forall ((Q1 quorum) (Q2 quorum) )(exists ((N node) )(and (member N Q1) (member N Q2)))
 )
 ))
 (let (($x9503 (= phase_becomeLeader phase_decide)))
 (let (($x6305 (not $x9503)))
 (let (($x13944 (= phase_recvVote phase_decide)))
 (let (($x4365 (not $x13944)))
 (let (($x4251 (= phase_recvVote phase_becomeLeader)))
 (let (($x9887 (not $x4251)))
 (let (($x24425 (= phase_sendVote phase_decide)))
 (let (($x16869 (not $x24425)))
 (let (($x14254 (= phase_sendVote phase_becomeLeader)))
 (let (($x415 (not $x14254)))
 (let (($x463 (= phase_sendVote phase_recvVote)))
 (let (($x836 (not $x463)))
 (let (($x751 (= phase_sendRequestVote phase_decide)))
 (let (($x10066 (not $x751)))
 (let (($x31293 (= phase_sendRequestVote phase_becomeLeader)))
 (let (($x34670 (not $x31293)))
 (let (($x11932 (= phase_sendRequestVote phase_recvVote)))
 (let (($x838 (not $x11932)))
 (let (($x714 (= phase_sendRequestVote phase_sendVote)))
 (let (($x394 (not $x714)))
 (let (($x810 (and $x394 $x838 $x34670 $x10066 $x836 $x415 $x16869 $x9887 $x4365 $x6305 $x29331)))
 (let (($x690 (not en_noop)))
 (let (($x702 (not |en_ext:next_phase1|)))
 (let (($x700 (or $x702 $x690)))
 (let (($x729 (not |en_ext:next_phase2|)))
 (let (($x735 (or $x729 $x690)))
 (let (($x741 (or $x729 $x702)))
 (let (($x754 (not |en_ext:next_phase3|)))
 (let (($x755 (or $x754 $x690)))
 (let (($x756 (or $x754 $x702)))
 (let (($x757 (or $x754 $x729)))
 (let (($x4715 (not |en_ext:next_phase4|)))
 (let (($x793 (or $x4715 $x690)))
 (let (($x790 (or $x4715 $x702)))
 (let (($x791 (or $x4715 $x729)))
 (let (($x19922 (or $x4715 $x754)))
 (let (($x781 (not |en_ext:decide|)))
 (let (($x789 (or $x781 $x690)))
 (let (($x730 (or $x781 $x702)))
 (let (($x1081 (or $x781 $x729)))
 (let (($x1076 (or $x781 $x754)))
 (let (($x1080 (or $x781 $x4715)))
 (let (($x4739 (not |en_ext:send_request_vote|)))
 (let (($x780 (or $x4739 $x690)))
 (let (($x1857 (or $x4739 $x702)))
 (let (($x24033 (or $x4739 $x729)))
 (let (($x15063 (or $x4739 $x754)))
 (let (($x15069 (or $x4739 $x4715)))
 (let (($x23290 (or $x4739 $x781)))
 (let (($x21979 (not |en_ext:recv_vote|)))
 (let (($x22902 (or $x21979 $x690)))
 (let (($x14998 (or $x21979 $x702)))
 (let (($x23281 (or $x21979 $x729)))
 (let (($x15078 (or $x21979 $x754)))
 (let (($x15065 (or $x21979 $x4715)))
 (let (($x15051 (or $x21979 $x781)))
 (let (($x15079 (or $x21979 $x4739)))
 (let (($x1072 (not |en_ext:become_leader|)))
 (let (($x1046 (or $x1072 $x690)))
 (let (($x1042 (or $x1072 $x702)))
 (let (($x1289 (or $x1072 $x729)))
 (let (($x1285 (or $x1072 $x754)))
 (let (($x1291 (or $x1072 $x4715)))
 (let (($x1056 (or $x1072 $x781)))
 (let (($x1503 (or $x1072 $x4739)))
 (let (($x1463 (or $x1072 $x21979)))
 (let (($x23320 (not |en_ext:send_vote|)))
 (let (($x17550 (or $x23320 $x690)))
 (let (($x22118 (or $x23320 $x702)))
 (let (($x21539 (or $x23320 $x729)))
 (let (($x23295 (or $x23320 $x754)))
 (let (($x23360 (or $x23320 $x4715)))
 (let (($x16268 (or $x23320 $x781)))
 (let (($x1091 (or $x23320 $x4739)))
 (let (($x1036 (or $x23320 $x21979)))
 (let (($x1037 (or $x23320 $x1072)))
 (let (($x1266 (or |en_ext:send_vote| |en_ext:become_leader| |en_ext:recv_vote| |en_ext:send_request_vote| |en_ext:decide| |en_ext:next_phase4| |en_ext:next_phase3| |en_ext:next_phase2| |en_ext:next_phase1| en_noop)))
 (let (($x47425 (forall ((|1:node| node) (|2:value| value) )(let (($x24426 (decided |1:node| |2:value|)))
 (let (($x18663 (__decided |1:node| |2:value|)))
 (= $x18663 $x24426))))
 ))
 (let (($x46364 (forall ((|1:node| node) )(let (($x46405 (voted |1:node|)))
 (let (($x46228 (__voted |1:node|)))
 (= $x46228 $x46405))))
 ))
 (let (($x42086 (forall ((|1:node| node) (|2:node| node) )(let (($x40199 (vote_msg |1:node| |2:node|)))
 (let (($x17476 (__vote_msg |1:node| |2:node|)))
 (= $x17476 $x40199))))
 ))
 (let (($x39315 (forall ((|1:node| node) (|2:node| node) )(let (($x40090 (vote_request_msg |1:node| |2:node|)))
 (let (($x39664 (__vote_request_msg |1:node| |2:node|)))
 (= $x39664 $x40090))))
 ))
 (let (($x38714 (= __curr_phase curr_phase)))
 (let (($x47301 (forall ((|1:node| node) )(let (($x34760 (leader |1:node|)))
 (let (($x28120 (__leader |1:node|)))
 (= $x28120 $x34760))))
 ))
 (let (($x51322 (forall ((|1:node| node) (|2:node| node) )(let (($x53472 (votes |1:node| |2:node|)))
 (let (($x53566 (__votes |1:node| |2:node|)))
 (= $x53566 $x53472))))
 ))
 (let (($x47397 (and $x51322 $x47301 $x38714 $x39315 $x42086 $x46364 $x47425)))
 (let (($x31853 (=> en_noop $x47397)))
 (let (($x31507 (= __curr_phase phase_sendRequestVote)))
 (let (($x30784 (= curr_phase phase_sendVote)))
 (let (($x30648 (and $x30784 $x31507)))
 (let (($x27650 (and $x30648 $x51322 $x47301 $x39315 $x42086 $x46364 $x47425)))
 (let (($x28007 (=> |en_ext:next_phase1| $x27650)))
 (let (($x27318 (= __curr_phase phase_sendVote)))
 (let (($x31564 (= curr_phase phase_recvVote)))
 (let (($x31622 (and $x31564 $x27318)))
 (let (($x31319 (and $x31622 $x51322 $x47301 $x39315 $x42086 $x46364 $x47425)))
 (let (($x28394 (=> |en_ext:next_phase2| $x31319)))
 (let (($x34622 (= __curr_phase phase_recvVote)))
 (let (($x28319 (= curr_phase phase_becomeLeader)))
 (let (($x31382 (and $x28319 $x34622)))
 (let (($x30089 (and $x31382 $x51322 $x47301 $x39315 $x42086 $x46364 $x47425)))
 (let (($x27038 (=> |en_ext:next_phase3| $x30089)))
 (let (($x27228 (= __curr_phase phase_becomeLeader)))
 (let (($x23870 (= curr_phase phase_decide)))
 (let (($x24724 (and $x23870 $x27228)))
 (let (($x25946 (and $x24724 $x51322 $x47301 $x39315 $x42086 $x46364 $x47425)))
 (let (($x26014 (=> |en_ext:next_phase4| $x25946)))
 (let (($x26963 (forall ((V value) )(let (($x25980 (__decided |V__fml:n| V)))
 (not $x25980)))
 ))
 (let (($x23219 (__leader |V__fml:n|)))
 (let (($x23977 (= __curr_phase phase_decide)))
 (let (($x17029 (forall ((V1 value) (V0 node) )(let (($x14337 (__decided V0 V1)))
 (let (($x20743 (= V1 |V__fml:v|)))
 (let (($x15196 (= V0 |V__fml:n|)))
 (let (($x20679 (and $x15196 $x20743)))
 (let (($x17776 (decided V0 V1)))
 (= $x17776 (and (or (not $x20679) true) (or $x20679 $x14337)))))))))
 ))
 (let (($x17725 (and $x17029 $x23977 $x23219 $x26963)))
 (let (($x17085 (and $x17725 $x51322 $x47301 $x38714 $x39315 $x42086 $x46364)))
 (let (($x17496 (=> |en_ext:decide| $x17085)))
 (let (($x9635 (forall ((V0 node) (V121 node) )(let (($x39664 (__vote_request_msg V0 V121)))
 (let (($x13702 (= V121 |V__fml:dst|)))
 (let (($x13338 (= V0 |V__fml:src|)))
 (let (($x8393 (and $x13338 $x13702)))
 (let (($x8131 (or $x8393 $x39664)))
 (let (($x11541 (or (not $x8393) true)))
 (let (($x40090 (vote_request_msg V0 V121)))
 (= $x40090 (and $x11541 $x8131))))))))))
 ))
 (let (($x9912 (and $x9635 $x31507)))
 (let (($x9981 (and $x9912 $x51322 $x47301 $x38714 $x42086 $x46364 $x47425)))
 (let (($x9987 (=> |en_ext:send_request_vote| $x9981)))
 (let (($x9104 (__vote_msg |V__fml:sender| |V__fml:n|)))
 (let (($x2280 (forall ((V120 node) (V0 node) )(let (($x4612 (__votes V0 V120)))
 (let (($x4375 (= V120 |V__fml:sender|)))
 (let (($x15196 (= V0 |V__fml:n|)))
 (let (($x4441 (and $x15196 $x4375)))
 (let (($x4391 (or $x4441 $x4612)))
 (let (($x2930 (votes V0 V120)))
 (= $x2930 (and (or (not $x4441) true) $x4391)))))))))
 ))
 (let (($x2864 (and $x2280 $x34622 $x9104)))
 (let (($x2281 (and $x2864 $x47301 $x38714 $x39315 $x42086 $x46364 $x47425)))
 (let (($x2173 (=> |en_ext:recv_vote| $x2281)))
 (let (($x743 (forall ((N node) )(let (($x739 (__votes |V__fml:n| N)))
 (let (($x740 (member N |V__fml:q|)))
 (=> $x740 $x739))))
 ))
 (let (($x26345 (forall ((V0 node) )(let (($x28120 (__leader V0)))
 (let (($x15196 (= V0 |V__fml:n|)))
 (let (($x8418 (or $x15196 $x28120)))
 (let (($x34760 (leader V0)))
 (= $x34760 (and (or (not $x15196) true) $x8418)))))))
 ))
 (let (($x30669 (and $x26345 $x27228 $x743)))
 (let (($x31926 (and $x30669 $x51322 $x38714 $x39315 $x42086 $x46364 $x47425)))
 (let (($x30613 (=> |en_ext:become_leader| $x31926)))
 (let (($x42830 (forall ((X0 node) (X1 node) )(let (($x13702 (= X1 |V__fml:dst|)))
 (let (($x39664 (__vote_request_msg X0 X1)))
 (let (($x49275 (not $x39664)))
 (let (($x40090 (vote_request_msg X0 X1)))
 (or $x40090 $x49275 $x13702))))))
 ))
 (let (($x47796 (forall ((X0 node) (X1 node) )(let (($x13338 (= X0 |V__fml:src|)))
 (let (($x39664 (__vote_request_msg X0 X1)))
 (let (($x49275 (not $x39664)))
 (let (($x40090 (vote_request_msg X0 X1)))
 (or $x40090 $x49275 $x13338))))))
 ))
 (let (($x823 (forall ((X0 node) (X1 node) )(let (($x13702 (= X1 |V__fml:dst|)))
 (let (($x39664 (__vote_request_msg X0 X1)))
 (let (($x40090 (vote_request_msg X0 X1)))
 (let (($x47459 (not $x40090)))
 (or $x47459 $x39664 $x13702))))))
 ))
 (let (($x719 (forall ((X0 node) (X1 node) )(let (($x13338 (= X0 |V__fml:src|)))
 (let (($x39664 (__vote_request_msg X0 X1)))
 (let (($x40090 (vote_request_msg X0 X1)))
 (let (($x47459 (not $x40090)))
 (or $x47459 $x39664 $x13338))))))
 ))
 (let (($x717 (__vote_request_msg |V__fml:dst| |V__fml:src|)))
 (let (($x7363 (__voted |V__fml:src|)))
 (let (($x12042 (not $x7363)))
 (let (($x27391 (forall ((V0 node) )(let (($x46228 (__voted V0)))
 (let (($x30840 (= V0 |V__fml:src|)))
 (let (($x20156 (or $x30840 $x46228)))
 (let (($x46405 (voted V0)))
 (= $x46405 (and (or (not $x30840) true) $x20156)))))))
 ))
 (let (($x6358 (forall ((V0 node) (V119 node) )(let (($x17476 (__vote_msg V0 V119)))
 (let (($x13702 (= V119 |V__fml:dst|)))
 (let (($x13338 (= V0 |V__fml:src|)))
 (let (($x8393 (and $x13338 $x13702)))
 (let (($x18505 (or $x8393 $x17476)))
 (let (($x11541 (or (not $x8393) true)))
 (let (($x40199 (vote_msg V0 V119)))
 (= $x40199 (and $x11541 $x18505))))))))))
 ))
 (let (($x24497 (and $x6358 $x27391 $x27318 $x12042 $x717 $x719 $x823 $x47796 $x42830)))
 (let (($x26947 (and $x24497 $x51322 $x47301 $x38714 $x47425)))
 (let (($x27063 (=> |en_ext:send_vote| $x26947)))
 (let (($x16334 (and $x27063 $x30613 $x2173 $x9987 $x17496 $x26014 $x27038 $x28394 $x28007 $x31853 $x1266 $x1037 $x1036 $x1091 $x16268 $x23360 $x23295 $x21539 $x22118 $x17550 $x1463 $x1503 $x1056 $x1291 $x1285 $x1289 $x1042 $x1046 $x15079 $x15051 $x15065 $x15078 $x23281 $x14998 $x22902 $x23290 $x15069 $x15063 $x24033 $x1857 $x780 $x1080 $x1076 $x1081 $x730 $x789 $x19922 $x791 $x790 $x793 $x757 $x756 $x755 $x741 $x735 $x700)))
 (let (($x1464800 (exists ((|Q:node:i:1| node) (|Q:node:i:2| node) (|Q:node:i:0| node) )(let (($x1444941 (not (= |Q:node:i:0| |Q:node:i:1|))))
 (let (($x40199 (vote_msg |Q:node:i:2| |Q:node:i:0|)))
 (and $x40199 $x1444941 (vote_msg |Q:node:i:2| |Q:node:i:1|)))))
 ))
 (let (($x1463443 (not $x1464800)))
 (let (($x1405807 (forall ((V1 value) (V2 value) (N1 node) (N2 node) )(let (($x1418326 (= V1 V2)))
 (let (($x1405092 (and (decided N1 V1) (decided N2 V2))))
 (=> $x1405092 $x1418326))))
 ))
 (let (($x1984 (exists ((|Q:node:i:1| node) (|Q:node:i:0| node) )(let (($x40199 (vote_msg |Q:node:i:1| |Q:node:i:0|)))
 (and $x40199 (not (voted |Q:node:i:1|)))))
 ))
 (let (($x1405809 (not $x1984)))
 (let (($x886 (exists ((|Q:value:i:0| value) (|Q:node:i:0| node) )(let (($x17776 (decided |Q:node:i:0| |Q:value:i:0|)))
 (and (not (leader |Q:node:i:0|)) $x17776)))
 ))
 (let (($x1403768 (not $x886)))
 (let (($x6230 (exists ((|Q:node:i:1| node) (|Q:node:i:0| node) )(let (($x2930 (votes |Q:node:i:0| |Q:node:i:1|)))
 (and $x2930 (not (vote_msg |Q:node:i:1| |Q:node:i:0|)))))
 ))
 (let (($x1422802 (not $x6230)))
 (let (($x1413677 (forall ((|Q:quorum:i:0| quorum) )(exists ((|Q:node:i:1| node) (|Q:quorum:i:2| quorum) (|Q:node:i:2| node) (|Q:node:i:0| node) )(let (($x2930 (votes |Q:node:i:0| |Q:node:i:2|)))
 (let (($x12044 (not $x2930)))
 (let (($x1423801 (not (votes |Q:node:i:0| |Q:node:i:1|))))
 (let (($x62359 (member |Q:node:i:2| |Q:quorum:i:2|)))
 (let (($x34760 (leader |Q:node:i:0|)))
 (let (($x1417864 (or (= |Q:quorum:i:2| |Q:quorum:i:0|) (member |Q:node:i:1| |Q:quorum:i:0|))))
 (and $x1417864 $x34760 $x62359 $x1423801 $x12044))))))))
 )
 ))
 (let (($x1413669 (not $x1413677)))
 (let (($x1413661 (and $x1413669 $x1422802 $x1403768 $x1405809 $x1405807 $x1463443)))
 (let (($x1413296 (not $x1413661)))
 (let (($x1397674 (exists ((|Q:node:i:1| node) (|Q:node:i:2| node) (|Q:node:i:0| node) )(let (($x1444941 (not (= |Q:node:i:0| |Q:node:i:1|))))
 (let (($x17476 (__vote_msg |Q:node:i:2| |Q:node:i:0|)))
 (and $x17476 $x1444941 (__vote_msg |Q:node:i:2| |Q:node:i:1|)))))
 ))
 (let (($x1399506 (not $x1397674)))
 (let (($x1409402 (forall ((V1 value) (V2 value) (N1 node) (N2 node) )(let (($x1418326 (= V1 V2)))
 (let (($x60504 (and (__decided N1 V1) (__decided N2 V2))))
 (=> $x60504 $x1418326))))
 ))
 (let (($x57883 (exists ((|Q:node:i:1| node) (|Q:node:i:0| node) )(let (($x17476 (__vote_msg |Q:node:i:1| |Q:node:i:0|)))
 (and $x17476 (not (__voted |Q:node:i:1|)))))
 ))
 (let (($x1414085 (not $x57883)))
 (let (($x607 (exists ((|Q:value:i:0| value) (|Q:node:i:0| node) )(let (($x14337 (__decided |Q:node:i:0| |Q:value:i:0|)))
 (let (($x28120 (__leader |Q:node:i:0|)))
 (let (($x55330 (not $x28120)))
 (and $x55330 $x14337)))))
 ))
 (let (($x435 (not $x607)))
 (let (($x66807 (exists ((|Q:node:i:1| node) (|Q:node:i:0| node) )(let (($x17476 (__vote_msg |Q:node:i:1| |Q:node:i:0|)))
 (let (($x60651 (not $x17476)))
 (let (($x4612 (__votes |Q:node:i:0| |Q:node:i:1|)))
 (and $x4612 $x60651)))))
 ))
 (let (($x1396562 (not $x66807)))
 (let (($x1459106 (forall ((|Q:quorum:i:0| quorum) )(exists ((|Q:node:i:1| node) (|Q:quorum:i:2| quorum) (|Q:node:i:2| node) (|Q:node:i:0| node) )(let (($x4612 (__votes |Q:node:i:0| |Q:node:i:2|)))
 (let (($x56749 (not $x4612)))
 (let (($x1413684 (not (__votes |Q:node:i:0| |Q:node:i:1|))))
 (let (($x62359 (member |Q:node:i:2| |Q:quorum:i:2|)))
 (let (($x28120 (__leader |Q:node:i:0|)))
 (let (($x1417864 (or (= |Q:quorum:i:2| |Q:quorum:i:0|) (member |Q:node:i:1| |Q:quorum:i:0|))))
 (and $x1417864 $x28120 $x62359 $x1413684 $x56749))))))))
 )
 ))
 (let (($x1461664 (not $x1459106)))
 (let (($x1461665 (and $x1461664 $x1396562 $x435 $x1414085 $x1409402 $x1399506)))
 (and $x1461665 $x1413296 $x16334 $x810))))))))))))))))))))))))))))))))))))))))))))))))))))))))))))))))))))))))))))))))))))))))))))))))))))))))))))))))))))))))))))))))))))))))))))))))))))))))))))))))))))))))
(check-sat)
